NAME: tsp-b-20
TYPE: TSP
COMMENT: min_cost = 1443.60
DIMENSION: 20
EDGE_WEIGHT_TYPE: EUC_2D
NODE_COORD_SECTION
1 17 239
2 9 265
3 77 254
4 165 271
5 56 308
6 228 360
7 214 397
8 354 239
9 201 363
10 341 345
11 154 14
12 71 23
13 172 124
14 66 12
15 62 65
16 345 127
17 377 94
18 223 142
19 352 112
20 354 98
EOF
